
Gurobi 7.0.2 (linux64, Matlab) logging started Sun Sep  2 08:55:06 2018


Gurobi 7.0.2 (linux64) logging started Sun Sep  2 08:55:06 2018

Optimize a model with 62932 rows, 15896 columns and 1031940 nonzeros
Coefficient statistics:
  Matrix range     [1e+00, 1e+00]
  Objective range  [1e+00, 2e+00]
  Bounds range     [1e+00, 1e+00]
  RHS range        [1e+00, 1e+00]
Iteration    Objective       Primal Inf.    Dual Inf.      Time
       0    1.0000000e+02   0.000000e+00   0.000000e+00      0s

Solved in 0 iterations and 0.06 seconds
Optimal objective  1.000000000e+02
